benchmarks_vrp/CMT11/fixed_c/CMT11_9.vrp
NAME: CMT11_9
TYPE: CVRP
COMMENT: 1042.11 - Cluster Nr.9
DIMENSION: 12
CAPACITY: 200
EDGE_WEIGHT_TYPE: EUC_2D
NODE_COORD_TYPE: TWOD_COORDS
NODE_COORD_SECTION: 
7 25 35
9 21 39
1 10 45
11 17 35
2 18 30
6 24 36
12 18 31
10 28 33
3 25 37
4 20 40
5 16 33
8 33 38
DEPOT_SECTION: 
1
-1
DEMAND_SECTION: 
6 12
5 7
1 0
8 13
4 4
7 4
10 12
9 16
11 10
3 13
12 11
2 11
EOF
