benchmarks_vrp/CMT11/fixed_c/CMT11_9.tour
NAME: CMT11_9 solution
TYPE: TOUR
TOUR_SECTION:
1 4 9 3 6 7 8 10 2 12 5 11 -1
-1
EOF